(set-info :Origin "This instance was generated by: BanditFuzz-- an RL fuzzer for SMT solvers" )
(set-info :Author "Joe Scott, Fed Mora, Vijay Ganesh" )
(set-info :Contact "Joe Scott, joseph.scott@uwaterloo.ca")
(set-logic QF_BV)
(declare-const bool_0 Bool)
(declare-const bool_1 Bool)
(declare-const bool_2 Bool)
(declare-const bool_3 Bool)
(declare-const bool_4 Bool)
(declare-const bv_0 (_ BitVec 32))
(declare-const bv_1 (_ BitVec 32))
(declare-const bv_2 (_ BitVec 32))
(declare-const bv_3 (_ BitVec 32))
(declare-const bv_4 (_ BitVec 32))
(assert (bvslt (bvnand (bvxnor #x77f55b8f  #xf95d57f2 ) (bvshl #xb271906d  bv_4)) (bvnand (bvsrem bv_2 #xcb86b95d ) (bvashr #x0e59c5f2  #x9448c84c ))))
(assert (bvsle (bvshl (bvsub bv_1 bv_2) (bvsrem bv_2 bv_0)) (bvadd (bvnand #xe4127a5d  #x6fab6a84 ) (bvlshr bv_1 #x22d994c8 ))))
(assert (bvsge (bvsub (bvnor bv_1 bv_3) (bvnand #xfc3c539b  bv_4)) (bvudiv (bvand #xfc83a068  bv_1) (bvnor bv_2 #x75a70371 ))))
(assert (bvslt (bvand (bvand #x1f7c994d  bv_4) (bvnand bv_0 #xe36b8bac )) (bvadd (bvand bv_2 #xbc7dd184 ) (bvudiv #xa15a13e0  bv_3))))
(assert (bvult (bvxnor (bvshl #x5fff259e  bv_2) (bvnand #x6bd83d63  bv_4)) (bvshl (bvsdiv #x1523592a  bv_0) (bvsmod #x6e4a4fa2  #x1f1ff37f ))))
(check-sat)
(exit)
